c "528178.clq"
p edge 142 552
e 1 5
e 1 6
e 1 7
e 1 11
e 1 30
e 1 79
e 1 85
e 1 101
e 1 114
e 2 5
e 2 6
e 2 8
e 2 9
e 2 12
e 2 13
e 2 14
e 2 17
e 2 20
e 2 22
e 2 29
e 2 37
e 2 40
e 2 47
e 2 49
e 2 50
e 2 61
e 2 64
e 2 65
e 2 74
e 2 82
e 2 84
e 2 86
e 2 88
e 2 91
e 2 94
e 2 117
e 2 121
e 2 123
e 2 140
e 3 5
e 3 6
e 3 7
e 3 8
e 3 9
e 3 10
e 3 25
e 3 29
e 3 30
e 3 31
e 3 34
e 3 48
e 3 90
e 3 118
e 4 5
e 5 6
e 5 7
e 5 13
e 5 15
e 5 16
e 5 21
e 5 28
e 5 36
e 5 39
e 5 44
e 5 57
e 5 69
e 5 71
e 5 73
e 5 81
e 5 104
e 5 115
e 5 118
e 6 7
e 6 8
e 6 9
e 6 10
e 6 11
e 6 12
e 6 14
e 6 15
e 6 16
e 6 17
e 6 18
e 6 19
e 6 21
e 6 30
e 6 31
e 6 32
e 6 35
e 6 62
e 6 88
e 6 90
e 6 96
e 6 119
e 6 133
e 7 8
e 7 10
e 7 12
e 7 15
e 7 16
e 7 18
e 7 22
e 7 25
e 7 27
e 7 28
e 7 32
e 7 36
e 7 49
e 7 55
e 7 58
e 7 64
e 7 66
e 7 69
e 7 73
e 7 92
e 7 96
e 7 112
e 8 9
e 8 10
e 8 11
e 8 20
e 8 23
e 8 34
e 8 37
e 8 42
e 8 53
e 8 68
e 8 71
e 8 73
e 8 91
e 8 141
e 9 13
e 9 60
e 9 61
e 9 75
e 9 104
e 10 11
e 10 13
e 10 14
e 10 15
e 10 17
e 10 19
e 10 20
e 10 29
e 10 36
e 10 39
e 10 45
e 10 47
e 10 56
e 10 58
e 10 63
e 10 65
e 10 78
e 10 79
e 10 83
e 10 110
e 10 131
e 10 134
e 11 12
e 11 14
e 11 16
e 11 17
e 11 18
e 11 21
e 11 22
e 11 39
e 11 41
e 11 45
e 11 46
e 11 48
e 11 51
e 11 61
e 11 76
e 11 77
e 11 98
e 11 101
e 11 111
e 11 116
e 11 122
e 11 129
e 11 130
e 11 135
e 11 136
e 12 18
e 12 22
e 12 57
e 12 68
e 12 69
e 12 89
e 12 111
e 12 125
e 12 131
e 12 132
e 12 140
e 13 23
e 13 24
e 13 26
e 13 35
e 13 60
e 13 82
e 13 95
e 13 129
e 14 26
e 14 43
e 14 63
e 14 72
e 15 19
e 15 24
e 15 26
e 15 31
e 15 38
e 15 40
e 15 41
e 15 44
e 15 46
e 15 67
e 15 70
e 15 75
e 15 77
e 15 107
e 15 108
e 15 109
e 15 139
e 16 19
e 16 23
e 16 27
e 16 37
e 16 38
e 16 39
e 16 43
e 16 44
e 16 49
e 16 51
e 16 58
e 16 62
e 16 74
e 16 89
e 16 93
e 16 122
e 16 127
e 16 135
e 17 25
e 17 28
e 17 34
e 17 46
e 17 48
e 17 54
e 17 58
e 17 68
e 17 80
e 17 84
e 17 89
e 17 94
e 17 103
e 17 112
e 17 134
e 17 135
e 17 137
e 18 21
e 18 30
e 18 36
e 18 41
e 18 76
e 18 78
e 18 85
e 18 95
e 18 106
e 18 120
e 19 20
e 19 27
e 19 33
e 19 47
e 19 67
e 19 142
e 20 24
e 20 32
e 20 38
e 20 42
e 20 72
e 20 90
e 20 97
e 20 126
e 20 136
e 21 31
e 21 62
e 21 103
e 21 119
e 21 122
e 21 138
e 22 23
e 22 24
e 22 25
e 22 27
e 22 33
e 22 35
e 22 45
e 22 52
e 22 53
e 22 56
e 22 60
e 22 76
e 22 77
e 22 83
e 22 86
e 22 91
e 22 93
e 22 109
e 22 117
e 22 118
e 22 125
e 23 28
e 23 41
e 23 52
e 23 59
e 23 104
e 24 34
e 24 37
e 24 93
e 24 96
e 25 26
e 25 38
e 25 44
e 25 51
e 25 129
e 25 139
e 26 35
e 26 108
e 27 29
e 27 33
e 27 83
e 27 101
e 27 114
e 27 121
e 27 140
e 28 42
e 28 43
e 28 64
e 28 68
e 28 71
e 28 81
e 28 98
e 28 106
e 28 111
e 29 33
e 29 51
e 29 66
e 29 80
e 29 94
e 29 95
e 29 132
e 29 139
e 30 32
e 30 62
e 30 80
e 30 91
e 30 94
e 30 107
e 30 142
e 31 93
e 32 43
e 32 56
e 32 92
e 32 105
e 32 109
e 32 117
e 32 123
e 32 125
e 32 136
e 33 53
e 33 70
e 33 78
e 34 53
e 34 70
e 34 113
e 34 114
e 34 141
e 35 40
e 35 63
e 35 102
e 35 104
e 36 45
e 36 57
e 36 60
e 36 66
e 36 72
e 36 88
e 36 106
e 36 131
e 37 42
e 37 77
e 37 99
e 37 135
e 37 138
e 38 40
e 38 50
e 38 73
e 38 99
e 38 132
e 39 49
e 39 54
e 40 52
e 40 63
e 40 75
e 40 84
e 40 134
e 40 137
e 41 47
e 41 54
e 41 59
e 41 67
e 41 71
e 41 112
e 42 59
e 42 66
e 42 69
e 44 50
e 44 55
e 44 61
e 44 98
e 44 102
e 44 103
e 44 105
e 44 115
e 44 120
e 44 121
e 44 123
e 44 137
e 44 142
e 45 46
e 45 48
e 45 52
e 45 54
e 45 57
e 45 70
e 45 83
e 45 99
e 45 100
e 45 110
e 45 121
e 46 50
e 46 55
e 46 56
e 46 86
e 46 89
e 46 92
e 46 110
e 46 127
e 46 134
e 47 82
e 47 85
e 47 97
e 48 67
e 48 78
e 48 122
e 49 76
e 49 103
e 49 105
e 49 123
e 50 55
e 50 87
e 51 101
e 51 128
e 52 59
e 52 79
e 52 113
e 53 87
e 54 116
e 54 138
e 55 65
e 55 80
e 56 90
e 56 98
e 56 139
e 57 81
e 57 88
e 57 100
e 58 116
e 59 74
e 59 111
e 60 65
e 60 117
e 62 64
e 62 114
e 63 74
e 63 100
e 63 108
e 63 110
e 63 115
e 64 84
e 64 116
e 66 81
e 66 86
e 66 107
e 66 131
e 66 133
e 68 72
e 68 85
e 68 102
e 68 124
e 68 126
e 69 125
e 70 79
e 70 97
e 71 137
e 71 138
e 71 140
e 72 75
e 72 92
e 72 124
e 74 99
e 74 124
e 77 100
e 77 106
e 77 112
e 77 118
e 77 126
e 77 129
e 78 96
e 79 113
e 79 130
e 80 133
e 81 82
e 81 87
e 81 102
e 82 87
e 82 120
e 84 113
e 85 95
e 85 105
e 85 128
e 86 97
e 86 109
e 86 124
e 86 127
e 86 128
e 86 133
e 90 126
e 92 132
e 97 120
e 98 119
e 99 128
e 101 108
e 102 107
e 103 115
e 103 127
e 105 136
e 105 141
e 108 119
e 110 141
e 114 130
e 126 130
e 135 142
